robust/generate/spp_dkp_Lefebvre_et_al_2026/src/shortest_path_5_3.kp
45
95

[5.87 3.26 1.67 0.46 2.64 2.81 0.29 0.97 0.69 3.73 5.08 3.86 5.88 2.79 3.67 1.68]

[95 88 12 76 14 58 23 38 32 19 93 67 57 55 67 49]
