robust/generate/spp_dkp_Lefebvre_et_al_2026/src/shortest_path_5_3.lp
\ Model sp_5_3
\ LP format - for model browsing. Use MPS format to capture full model detail.
\ Signature: 0x6daf66c4acd85796
Minimize
  35 y[0,1] + 28.3 y[0,2] + 51.79 y[0,3] + 26.25 y[0,4] + 35 y[1,0]
   + 52.35 y[1,2] + 35.51 y[1,3] + 28.3 y[2,0] + 52.35 y[2,1]
   + 48.84 y[2,3] + 23.02 y[2,4] + 51.79 y[3,0] + 35.51 y[3,1]
   + 48.84 y[3,2] + 26.25 y[4,0] + 23.02 y[4,2] + 3.5 r[0,1] + 2.83 r[0,2]
   + 5.179 r[0,3] + 2.625 r[0,4] + 3.5 r[1,0] + 5.235 r[1,2] + 3.551 r[1,3]
   + 2.83 r[2,0] + 5.235 r[2,1] + 4.884 r[2,3] + 2.302 r[2,4]
   + 5.179 r[3,0] + 3.551 r[3,1] + 4.884 r[3,2] + 2.625 r[4,0]
   + 2.302 r[4,2]
Subject To
 flow_cons_inner_nodes[0]: - y[0,1] - y[0,2] - y[0,3] - y[0,4] + y[1,0]
   + y[2,0] + y[3,0] + y[4,0] = 0
 flow_cons_inner_nodes[1]: y[0,1] - y[1,0] - y[1,2] - y[1,3] + y[2,1]
   + y[3,1] = 0
 flow_cons_inner_nodes[2]: y[0,2] + y[1,2] - y[2,0] - y[2,1] - y[2,3]
   - y[2,4] + y[3,2] + y[4,2] = 0
 flow_cons_source: - y[0,3] - y[1,3] - y[2,3] + y[3,0] + y[3,1] + y[3,2]
   = 1
 flow_cons_target: y[0,4] + y[2,4] - y[4,0] - y[4,2] = 1
 primal_lower: - 5.87 y[0,1] - 3.26 y[0,2] - 1.67 y[0,3] - 0.46 y[0,4]
   - 2.64 y[1,0] - 2.81 y[1,2] - 0.29 y[1,3] - 0.97 y[2,0] - 0.69 y[2,1]
   - 3.73 y[2,3] - 5.08 y[2,4] - 3.86 y[3,0] - 5.88 y[3,1] - 2.79 y[3,2]
   - 3.67 y[4,0] - 1.68 y[4,2] + 95 u[0,1] + 88 u[0,2] + 12 u[0,3]
   + 76 u[0,4] + 14 u[1,0] + 58 u[1,2] + 23 u[1,3] + 38 u[2,0] + 32 u[2,1]
   + 19 u[2,3] + 93 u[2,4] + 67 u[3,0] + 57 u[3,1] + 55 u[3,2] + 67 u[4,0]
   + 49 u[4,2] <= 95
 mccormick1[0,1]: - u[0,1] + r[0,1] <= 0
 mccormick1[0,2]: - u[0,2] + r[0,2] <= 0
 mccormick1[0,3]: - u[0,3] + r[0,3] <= 0
 mccormick1[0,4]: - u[0,4] + r[0,4] <= 0
 mccormick1[1,0]: - u[1,0] + r[1,0] <= 0
 mccormick1[1,2]: - u[1,2] + r[1,2] <= 0
 mccormick1[1,3]: - u[1,3] + r[1,3] <= 0
 mccormick1[2,0]: - u[2,0] + r[2,0] <= 0
 mccormick1[2,1]: - u[2,1] + r[2,1] <= 0
 mccormick1[2,3]: - u[2,3] + r[2,3] <= 0
 mccormick1[2,4]: - u[2,4] + r[2,4] <= 0
 mccormick1[3,0]: - u[3,0] + r[3,0] <= 0
 mccormick1[3,1]: - u[3,1] + r[3,1] <= 0
 mccormick1[3,2]: - u[3,2] + r[3,2] <= 0
 mccormick1[4,0]: - u[4,0] + r[4,0] <= 0
 mccormick1[4,2]: - u[4,2] + r[4,2] <= 0
 mccormick2[0,1]: - y[0,1] + r[0,1] <= 0
 mccormick2[0,2]: - y[0,2] + r[0,2] <= 0
 mccormick2[0,3]: - y[0,3] + r[0,3] <= 0
 mccormick2[0,4]: - y[0,4] + r[0,4] <= 0
 mccormick2[1,0]: - y[1,0] + r[1,0] <= 0
 mccormick2[1,2]: - y[1,2] + r[1,2] <= 0
 mccormick2[1,3]: - y[1,3] + r[1,3] <= 0
 mccormick2[2,0]: - y[2,0] + r[2,0] <= 0
 mccormick2[2,1]: - y[2,1] + r[2,1] <= 0
 mccormick2[2,3]: - y[2,3] + r[2,3] <= 0
 mccormick2[2,4]: - y[2,4] + r[2,4] <= 0
 mccormick2[3,0]: - y[3,0] + r[3,0] <= 0
 mccormick2[3,1]: - y[3,1] + r[3,1] <= 0
 mccormick2[3,2]: - y[3,2] + r[3,2] <= 0
 mccormick2[4,0]: - y[4,0] + r[4,0] <= 0
 mccormick2[4,2]: - y[4,2] + r[4,2] <= 0
 mccormick3[0,1]: - y[0,1] - u[0,1] + r[0,1] >= -1
 mccormick3[0,2]: - y[0,2] - u[0,2] + r[0,2] >= -1
 mccormick3[0,3]: - y[0,3] - u[0,3] + r[0,3] >= -1
 mccormick3[0,4]: - y[0,4] - u[0,4] + r[0,4] >= -1
 mccormick3[1,0]: - y[1,0] - u[1,0] + r[1,0] >= -1
 mccormick3[1,2]: - y[1,2] - u[1,2] + r[1,2] >= -1
 mccormick3[1,3]: - y[1,3] - u[1,3] + r[1,3] >= -1
 mccormick3[2,0]: - y[2,0] - u[2,0] + r[2,0] >= -1
 mccormick3[2,1]: - y[2,1] - u[2,1] + r[2,1] >= -1
 mccormick3[2,3]: - y[2,3] - u[2,3] + r[2,3] >= -1
 mccormick3[2,4]: - y[2,4] - u[2,4] + r[2,4] >= -1
 mccormick3[3,0]: - y[3,0] - u[3,0] + r[3,0] >= -1
 mccormick3[3,1]: - y[3,1] - u[3,1] + r[3,1] >= -1
 mccormick3[3,2]: - y[3,2] - u[3,2] + r[3,2] >= -1
 mccormick3[4,0]: - y[4,0] - u[4,0] + r[4,0] >= -1
 mccormick3[4,2]: - y[4,2] - u[4,2] + r[4,2] >= -1
Bounds
Binaries
 y[0,1] y[0,2] y[0,3] y[0,4] y[1,0] y[1,2] y[1,3] y[2,0] y[2,1] y[2,3]
 y[2,4] y[3,0] y[3,1] y[3,2] y[4,0] y[4,2] u[0,1] u[0,2] u[0,3] u[0,4]
 u[1,0] u[1,2] u[1,3] u[2,0] u[2,1] u[2,3] u[2,4] u[3,0] u[3,1] u[3,2]
 u[4,0] u[4,2] r[0,1] r[0,2] r[0,3] r[0,4] r[1,0] r[1,2] r[1,3] r[2,0]
 r[2,1] r[2,3] r[2,4] r[3,0] r[3,1] r[3,2] r[4,0] r[4,2]
End
